231
3324
167
0 2
0 10
0 12
0 97
0 112
0 114
0 125
0 144
1 6
1 9
1 14
1 21
1 48
1 98
1 113
1 116
1 128
2 10
2 12
2 17
2 18
2 25
2 26
2 28
2 30
2 33
2 34
2 42
2 43
2 97
2 112
2 114
2 125
2 144
3 4
3 5
3 7
3 8
3 11
3 13
3 22
3 23
3 35
3 38
3 45
3 84
3 85
3 99
3 100
3 101
3 102
3 105
3 107
3 110
3 115
3 117
3 130
3 132
3 134
3 171
3 187
3 201
3 221
4 5
4 7
4 8
4 11
4 13
4 22
4 23
4 35
4 38
4 45
4 84
4 85
4 115
4 117
4 130
4 132
4 134
4 171
4 187
4 201
4 221
5 7
5 8
5 11
5 13
5 22
5 23
5 35
5 38
5 45
5 84
5 85
5 171
6 9
6 14
6 19
6 20
6 21
6 24
6 27
6 29
6 36
6 37
6 39
6 40
6 41
6 44
6 46
6 48
6 54
6 55
6 68
6 70
6 79
6 87
6 88
6 91
6 94
6 98
6 105
6 113
6 116
6 128
6 144
6 150
6 151
6 153
6 154
6 156
6 157
7 8
7 11
7 13
7 22
7 23
7 35
7 38
7 45
7 69
7 75
7 84
7 85
7 104
7 106
7 108
7 109
7 118
7 119
7 120
7 121
7 122
7 171
8 11
8 13
8 22
8 23
8 35
8 38
8 45
8 69
8 75
8 84
8 85
8 104
8 106
8 108
8 109
8 118
8 119
8 120
8 121
8 122
8 123
8 126
8 127
8 131
8 135
8 137
8 171
8 174
8 185
8 199
8 204
8 219
8 220
8 225
8 226
9 14
9 19
9 20
9 21
9 24
9 27
9 29
9 36
9 37
9 39
9 40
9 41
9 44
9 46
9 48
9 54
9 55
9 68
9 70
9 79
9 87
9 88
9 91
9 94
9 98
9 105
9 113
9 116
9 128
10 12
10 17
10 18
10 25
10 26
10 28
10 30
10 33
10 34
10 42
10 43
10 53
10 56
10 58
10 66
10 71
10 72
10 76
10 97
10 107
10 112
10 114
10 125
10 144
11 13
11 22
11 23
11 35
11 38
11 45
11 69
11 75
11 84
11 85
11 91
11 104
11 106
11 108
11 109
11 118
11 119
11 120
11 121
11 122
11 129
11 133
11 138
11 139
11 141
11 142
11 154
11 157
11 171
11 196
12 17
12 18
12 25
12 26
12 28
12 30
12 33
12 34
12 42
12 43
12 53
12 56
12 58
12 66
12 71
12 72
12 76
12 97
12 107
12 112
12 114
12 125
12 144
12 168
12 172
12 173
12 174
12 207
13 22
13 23
13 35
13 38
13 44
13 45
13 69
13 75
13 84
13 85
13 94
13 104
13 106
13 108
13 109
13 118
13 119
13 120
13 121
13 122
13 140
13 153
13 156
13 171
13 191
14 19
14 20
14 21
14 24
14 27
14 29
14 36
14 37
14 39
14 40
14 41
14 44
14 46
14 48
14 57
14 73
14 74
14 77
14 89
14 90
14 92
14 93
14 95
14 98
14 110
14 113
14 116
14 128
14 152
14 155
15 21
15 22
15 23
15 47
15 48
15 60
15 158
15 171
15 177
15 210
15 211
16 19
16 20
16 24
16 27
16 29
16 49
16 63
16 159
16 162
16 214
17 18
17 25
17 26
17 28
17 30
17 33
17 34
17 42
17 43
17 114
18 25
18 26
18 28
18 30
18 33
18 34
18 42
18 43
18 50
18 51
18 52
18 54
18 55
18 57
18 114
18 165
18 169
18 183
18 198
18 218
19 20
19 21
19 24
19 27
19 29
19 36
19 37
19 39
19 40
19 41
19 44
19 46
19 49
19 63
19 78
19 81
19 82
19 83
19 86
19 116
19 131
19 135
19 147
19 149
19 159
19 162
19 166
19 170
19 180
19 182
19 186
19 197
19 214
19 217
19 222
20 21
20 24
20 27
20 29
20 36
20 37
20 39
20 40
20 41
20 44
20 46
20 49
20 63
20 116
20 159
20 162
20 214
21 22
21 23
21 24
21 27
21 29
21 36
21 37
21 39
21 40
21 41
21 44
21 46
21 47
21 48
21 60
21 98
21 113
21 116
21 128
21 158
21 171
21 177
21 210
21 211
22 23
22 35
22 38
22 45
22 47
22 48
22 60
22 84
22 85
22 115
22 117
22 130
22 132
22 134
22 158
22 171
22 177
22 187
22 201
22 210
22 211
22 221
23 35
23 38
23 45
23 47
23 48
23 60
23 84
23 85
23 158
23 171
23 177
23 210
23 211
24 27
24 29
24 36
24 37
24 39
24 40
24 41
24 44
24 46
24 49
24 54
24 55
24 63
24 68
24 70
24 79
24 87
24 88
24 91
24 94
24 105
24 116
24 144
24 150
24 151
24 153
24 154
24 156
24 157
24 159
24 162
24 214
25 26
25 28
25 30
25 33
25 34
25 42
25 43
25 53
25 56
25 58
25 66
25 71
25 72
25 76
25 107
25 114
25 168
25 172
25 173
25 174
25 185
25 187
25 188
25 189
25 191
25 207
25 220
25 221
25 225
26 28
26 30
26 33
26 34
26 42
26 43
26 53
26 56
26 58
26 66
26 71
26 72
26 76
26 107
26 114
27 29
27 36
27 37
27 39
27 40
27 41
27 44
27 46
27 49
27 57
27 63
27 73
27 74
27 77
27 89
27 90
27 92
27 93
27 95
27 110
27 116
27 152
27 155
27 159
27 162
27 205
27 208
27 214
27 220
27 221
27 225
27 227
27 229
28 30
28 33
28 34
28 42
28 43
28 53
28 56
28 58
28 66
28 71
28 72
28 76
28 107
28 114
28 168
28 172
28 173
28 174
28 207
29 36
29 37
29 39
29 40
29 41
29 44
29 46
29 49
29 57
29 63
29 73
29 74
29 77
29 89
29 90
29 92
29 93
29 95
29 110
29 116
29 152
29 155
29 159
29 162
29 175
29 192
29 214
29 219
29 223
29 224
29 226
29 230
30 33
30 34
30 42
30 43
30 53
30 56
30 58
30 66
30 71
30 72
30 76
30 107
30 114
30 142
30 160
30 163
30 166
30 167
30 170
30 175
30 176
31 35
31 38
31 45
31 59
31 84
31 85
31 123
31 143
31 159
32 33
32 34
32 42
32 43
32 61
32 126
32 145
32 160
32 210
32 213
33 34
33 42
33 43
33 61
33 114
33 126
33 145
33 160
33 210
33 213
34 42
34 43
34 50
34 51
34 52
34 54
34 55
34 57
34 61
34 114
34 126
34 145
34 160
34 165
34 169
34 183
34 198
34 210
34 213
34 218
35 38
35 45
35 59
35 84
35 85
35 99
35 100
35 101
35 102
35 105
35 107
35 110
35 115
35 117
35 123
35 130
35 132
35 134
35 143
35 159
35 171
35 187
35 201
35 221
36 37
36 39
36 40
36 41
36 44
36 46
36 116
37 39
37 40
37 41
37 44
37 46
37 52
37 67
37 69
37 75
37 78
37 81
37 82
37 83
37 86
37 116
37 131
37 135
37 147
37 149
37 166
37 169
37 170
37 180
37 182
37 186
37 197
37 217
37 222
38 45
38 59
38 84
38 85
38 123
38 143
38 159
38 171
39 40
39 41
39 44
39 46
39 52
39 67
39 69
39 75
39 78
39 81
39 82
39 83
39 86
39 96
39 97
39 98
39 103
39 104
39 106
39 108
39 109
39 116
39 131
39 135
39 147
39 149
39 166
39 169
39 170
39 180
39 182
39 186
39 197
39 217
39 222
40 41
40 44
40 46
40 54
40 55
40 68
40 70
40 79
40 87
40 88
40 91
40 94
40 105
40 116
40 144
40 150
40 151
40 153
40 154
40 156
40 157
41 44
41 46
41 54
41 55
41 68
41 70
41 79
41 87
41 88
41 91
41 94
41 105
41 116
42 43
42 53
42 56
42 58
42 61
42 66
42 71
42 72
42 76
42 107
42 114
42 126
42 145
42 160
42 210
42 213
43 53
43 56
43 58
43 61
43 66
43 71
43 72
43 76
43 107
43 114
43 126
43 145
43 160
43 168
43 172
43 173
43 174
43 207
43 210
43 213
44 45
44 46
44 54
44 55
44 68
44 70
44 75
44 79
44 87
44 88
44 91
44 94
44 105
44 109
44 116
44 120
44 121
44 140
44 144
44 150
44 151
44 153
44 154
44 156
44 157
44 191
45 59
45 69
45 75
45 84
45 85
45 94
45 104
45 106
45 108
45 109
45 118
45 119
45 120
45 121
45 122
45 123
45 140
45 143
45 153
45 156
45 159
45 171
45 191
46 57
46 73
46 74
46 77
46 89
46 90
46 92
46 93
46 95
46 110
46 116
46 152
46 155
47 48
47 49
47 60
47 62
47 63
47 158
47 159
47 161
47 162
47 171
47 177
47 178
47 210
47 211
47 212
47 214
48 49
48 60
48 62
48 63
48 98
48 113
48 116
48 128
48 158
48 159
48 161
48 162
48 171
48 177
48 178
48 210
48 211
48 212
48 214
49 60
49 62
49 63
49 158
49 159
49 161
49 162
49 171
49 177
49 178
49 211
49 212
49 214
50 51
50 52
50 54
50 55
50 57
50 165
50 169
50 183
50 198
50 218
51 52
51 54
51 55
51 57
51 59
51 61
51 65
51 68
51 70
51 73
51 74
51 77
51 99
51 102
51 105
51 110
51 132
51 165
51 169
51 183
51 198
51 218
52 54
52 55
52 57
52 67
52 69
52 75
52 78
52 83
52 86
52 135
52 149
52 165
52 169
52 170
52 183
52 186
52 198
52 218
52 222
53 56
53 58
53 66
53 71
53 72
53 76
53 107
53 168
53 172
53 173
53 174
53 185
53 187
53 188
53 189
53 191
53 207
53 220
53 221
53 225
54 55
54 57
54 59
54 61
54 65
54 68
54 70
54 73
54 74
54 77
54 79
54 87
54 88
54 91
54 94
54 99
54 102
54 105
54 110
54 132
54 144
54 150
54 151
54 153
54 154
54 156
54 157
54 165
54 169
54 183
54 198
54 218
55 57
55 59
55 61
55 65
55 68
55 70
55 73
55 74
55 77
55 79
55 87
55 88
55 91
55 94
55 99
55 102
55 105
55 110
55 132
55 165
55 169
55 183
55 198
55 218
56 58
56 66
56 71
56 72
56 76
56 107
56 168
56 172
56 173
56 174
56 207
57 59
57 61
57 65
57 68
57 70
57 73
57 74
57 77
57 89
57 90
57 92
57 93
57 95
57 99
57 102
57 105
57 110
57 132
57 152
57 155
57 165
57 169
57 183
57 198
57 205
57 208
57 218
57 220
57 221
57 225
57 227
57 229
58 66
58 71
58 72
58 76
58 107
58 142
58 160
58 163
58 166
58 167
58 170
58 175
58 176
59 61
59 65
59 68
59 70
59 73
59 74
59 77
59 80
59 84
59 85
59 99
59 102
59 105
59 110
59 123
59 126
59 127
59 132
59 143
59 145
59 146
59 159
59 160
59 163
59 179
59 194
59 210
59 213
59 215
60 62
60 63
60 64
60 66
60 71
60 72
60 76
60 81
60 100
60 107
60 130
60 158
60 159
60 161
60 162
60 171
60 177
60 178
60 180
60 210
60 211
60 212
60 214
61 65
61 68
61 70
61 73
61 74
61 77
61 80
61 84
61 85
61 99
61 102
61 105
61 110
61 123
61 126
61 127
61 132
61 143
61 145
61 146
61 160
61 163
61 179
61 194
61 210
61 213
61 215
62 63
62 64
62 66
62 71
62 72
62 76
62 81
62 100
62 107
62 130
62 158
62 159
62 161
62 162
62 171
62 177
62 178
62 180
62 211
62 212
62 214
63 64
63 66
63 71
63 72
63 76
63 81
63 100
63 107
63 130
63 158
63 159
63 161
63 162
63 171
63 177
63 178
63 180
63 211
63 212
63 214
64 66
64 71
64 72
64 76
64 81
64 100
64 107
64 130
64 180
65 68
65 70
65 73
65 74
65 77
65 99
65 102
65 105
65 110
65 132
66 71
66 72
66 76
66 81
66 100
66 107
66 130
66 133
66 142
66 160
66 163
66 166
66 167
66 168
66 170
66 175
66 176
66 179
66 180
66 182
66 184
66 186
66 194
66 197
66 200
66 210
66 213
66 215
66 217
66 222
67 69
67 75
67 78
67 83
67 86
67 135
67 149
67 169
67 170
67 186
67 222
68 70
68 73
68 74
68 77
68 79
68 87
68 88
68 91
68 94
68 99
68 102
68 105
68 110
68 132
68 144
68 150
68 151
68 153
68 154
68 156
68 157
69 75
69 78
69 83
69 86
69 96
69 97
69 98
69 103
69 104
69 106
69 108
69 109
69 118
69 119
69 120
69 121
69 122
69 123
69 126
69 127
69 131
69 135
69 137
69 149
69 169
69 170
69 174
69 185
69 186
69 199
69 204
69 219
69 220
69 222
69 225
69 226
70 73
70 74
70 77
70 79
70 87
70 88
70 91
70 94
70 99
70 102
70 105
70 110
70 132
71 72
71 76
71 81
71 100
71 107
71 130
71 180
72 76
72 81
72 100
72 107
72 130
72 168
72 172
72 173
72 174
72 180
72 207
73 74
73 77
73 89
73 90
73 92
73 93
73 95
73 99
73 102
73 105
73 110
73 132
73 152
73 155
73 205
73 208
73 220
73 221
73 225
73 227
73 229
74 77
74 89
74 90
74 92
74 93
74 95
74 99
74 102
74 105
74 110
74 132
74 152
74 155
74 175
74 192
74 219
74 223
74 224
74 226
74 230
75 78
75 83
75 86
75 94
75 96
75 97
75 98
75 103
75 104
75 106
75 108
75 109
75 118
75 119
75 120
75 121
75 122
75 135
75 140
75 149
75 153
75 156
75 169
75 170
75 186
75 191
75 222
76 81
76 100
76 107
76 130
76 142
76 160
76 163
76 166
76 167
76 170
76 175
76 176
76 180
77 89
77 90
77 92
77 93
77 95
77 99
77 102
77 105
77 110
77 132
77 152
77 155
78 79
78 81
78 82
78 83
78 86
78 96
78 97
78 98
78 103
78 104
78 106
78 108
78 109
78 111
78 112
78 113
78 114
78 116
78 124
78 125
78 128
78 131
78 135
78 144
78 147
78 149
78 166
78 169
78 170
78 180
78 182
78 186
78 193
78 197
78 217
78 222
79 87
79 88
79 91
79 94
79 96
79 97
79 98
79 105
79 111
79 112
79 113
79 114
79 116
79 124
79 125
79 128
79 130
79 132
79 134
79 136
79 144
79 150
79 151
79 153
79 154
79 156
79 157
79 172
79 187
79 188
79 193
79 201
79 202
79 221
79 223
80 84
80 85
80 99
80 123
80 126
80 127
80 143
80 145
80 146
80 160
80 163
80 179
80 194
80 210
80 213
80 215
81 82
81 83
81 86
81 100
81 107
81 130
81 131
81 135
81 147
81 149
81 166
81 170
81 180
81 182
81 186
81 197
81 217
81 222
82 83
82 86
82 131
82 135
82 147
82 149
82 166
82 170
82 180
82 182
82 186
82 197
82 217
82 222
83 86
83 131
83 135
83 147
83 149
83 166
83 169
83 170
83 180
83 182
83 186
83 197
83 217
83 222
84 85
84 99
84 115
84 117
84 123
84 126
84 127
84 130
84 132
84 134
84 143
84 145
84 146
84 159
84 160
84 163
84 171
84 179
84 187
84 194
84 201
84 210
84 213
84 215
84 221
85 99
85 123
85 126
85 127
85 143
85 145
85 146
85 159
85 160
85 163
85 171
85 179
85 194
85 210
85 213
85 215
86 96
86 97
86 98
86 103
86 104
86 106
86 108
86 109
86 131
86 135
86 147
86 149
86 166
86 169
86 170
86 180
86 182
86 186
86 197
86 217
86 222
87 88
87 91
87 94
87 105
87 144
87 150
87 151
87 153
87 154
87 156
87 157
88 91
88 94
88 105
89 90
89 92
89 93
89 95
89 110
89 152
89 153
89 155
89 195
89 198
89 206
89 207
89 211
89 212
89 214
89 216
89 218
89 228
90 92
90 93
90 95
90 110
90 119
90 129
90 138
90 142
90 152
90 155
90 177
90 178
90 181
90 183
90 190
90 196
90 205
90 208
90 220
90 221
90 225
90 227
90 229
91 94
91 105
91 108
91 119
91 122
91 129
91 133
91 138
91 139
91 141
91 142
91 144
91 150
91 151
91 153
91 154
91 156
91 157
91 196
92 93
92 95
92 110
92 152
92 155
92 205
92 208
92 220
92 221
92 225
92 227
92 229
93 95
93 110
93 152
93 155
93 175
93 192
93 219
93 223
93 224
93 226
93 230
94 105
94 109
94 120
94 121
94 140
94 144
94 150
94 151
94 153
94 154
94 156
94 157
94 191
95 110
95 152
95 155
96 97
96 98
96 103
96 104
96 106
96 108
96 109
96 111
96 112
96 113
96 114
96 116
96 124
96 125
96 128
96 144
96 193
97 98
97 103
97 104
97 106
97 108
97 109
97 111
97 112
97 113
97 114
97 116
97 124
97 125
97 128
97 144
97 193
98 103
98 104
98 106
98 108
98 109
98 111
98 112
98 113
98 114
98 116
98 124
98 125
98 128
98 144
98 193
99 100
99 101
99 102
99 105
99 107
99 110
99 115
99 123
99 126
99 127
99 130
99 132
99 143
99 145
99 146
99 160
99 163
99 179
99 194
99 210
99 213
99 215
100 101
100 102
100 105
100 107
100 110
100 115
100 130
100 132
100 180
101 102
101 105
101 107
101 110
101 115
101 130
101 132
102 105
102 107
102 110
102 115
102 130
102 132
103 104
103 106
103 108
103 109
104 106
104 108
104 109
104 118
104 119
104 120
104 121
104 122
105 107
105 110
105 115
105 130
105 132
105 144
105 150
105 151
105 153
105 154
105 156
105 157
106 108
106 109
106 118
106 119
106 120
106 121
106 122
106 123
106 126
106 127
106 131
106 135
106 137
106 174
106 185
106 199
106 204
106 219
106 220
106 225
106 226
107 110
107 115
107 130
107 132
107 180
108 109
108 118
108 119
108 120
108 121
108 122
108 129
108 133
108 138
108 139
108 141
108 142
108 154
108 157
108 196
109 118
109 119
109 120
109 121
109 122
109 140
109 153
109 156
109 191
110 115
110 130
110 132
110 152
110 155
111 112
111 113
111 114
111 116
111 124
111 125
111 128
111 144
111 193
112 113
112 114
112 116
112 124
112 125
112 128
112 144
112 193
113 114
113 116
113 124
113 125
113 128
113 144
113 193
114 116
114 124
114 125
114 128
114 144
114 193
115 117
115 130
115 132
115 134
115 187
115 201
115 221
116 124
116 125
116 128
116 144
116 193
117 130
117 132
117 134
117 187
117 201
117 221
118 119
118 120
118 121
118 122
119 120
119 121
119 122
119 129
119 133
119 138
119 139
119 141
119 142
119 154
119 157
119 177
119 178
119 181
119 183
119 190
119 196
119 205
119 227
120 121
120 122
120 140
120 153
120 156
120 191
121 122
121 140
121 153
121 156
121 191
121 194
121 195
121 197
121 198
121 200
121 205
121 206
121 207
121 208
121 209
122 129
122 133
122 138
122 139
122 141
122 142
122 154
122 157
122 168
122 179
122 180
122 182
122 184
122 186
122 192
122 196
123 126
123 127
123 131
123 135
123 137
123 143
123 145
123 146
123 147
123 148
123 149
123 152
123 155
123 159
123 160
123 163
123 174
123 179
123 185
123 194
123 199
123 204
123 210
123 213
123 215
123 219
123 220
123 225
123 226
124 125
124 128
124 130
124 132
124 134
124 136
124 144
124 150
124 172
124 187
124 188
124 193
124 201
124 202
124 221
124 223
125 128
125 130
125 132
125 134
125 136
125 144
125 150
125 172
125 187
125 188
125 193
125 201
125 202
125 221
125 223
126 127
126 131
126 135
126 137
126 143
126 145
126 146
126 147
126 148
126 149
126 152
126 155
126 160
126 163
126 174
126 179
126 185
126 194
126 199
126 204
126 210
126 213
126 215
126 219
126 220
126 225
126 226
127 131
127 135
127 137
127 143
127 145
127 146
127 147
127 148
127 149
127 152
127 155
127 160
127 163
127 174
127 179
127 185
127 194
127 199
127 204
127 210
127 213
127 215
127 219
127 220
127 225
127 226
128 130
128 132
128 134
128 136
128 144
128 150
128 172
128 187
128 188
128 193
128 201
128 202
128 221
128 223
129 133
129 138
129 139
129 141
129 142
129 154
129 157
129 158
129 159
129 161
129 162
129 164
129 165
129 169
129 171
129 177
129 178
129 181
129 183
129 190
129 195
129 196
129 198
129 205
129 211
129 212
129 214
129 216
129 218
129 227
130 132
130 134
130 136
130 144
130 150
130 172
130 180
130 187
130 188
130 193
130 201
130 202
130 221
130 223
131 135
131 137
131 143
131 145
131 146
131 147
131 148
131 149
131 152
131 155
131 166
131 170
131 174
131 180
131 182
131 185
131 186
131 197
131 199
131 204
131 217
131 219
131 220
131 222
131 225
131 226
132 134
132 136
132 144
132 150
132 172
132 187
132 188
132 193
132 201
132 202
132 221
132 223
133 138
133 139
133 141
133 142
133 154
133 157
133 160
133 163
133 166
133 167
133 168
133 170
133 179
133 180
133 182
133 184
133 186
133 192
133 194
133 196
133 197
133 200
133 210
133 213
133 215
133 217
133 222
134 136
134 144
134 150
134 172
134 187
134 188
134 193
134 201
134 202
134 221
134 223
135 137
135 143
135 145
135 146
135 147
135 148
135 149
135 152
135 155
135 166
135 169
135 170
135 174
135 180
135 182
135 185
135 186
135 197
135 199
135 204
135 217
135 219
135 220
135 222
135 225
135 226
136 144
136 150
136 172
136 187
136 188
136 193
136 201
136 202
136 221
136 223
137 174
137 185
137 199
137 204
137 219
137 220
137 225
137 226
138 139
138 141
138 142
138 154
138 157
138 177
138 178
138 181
138 183
138 190
138 196
138 205
138 227
139 141
139 142
139 154
139 157
139 196
140 153
140 156
140 191
141 142
141 154
141 157
141 168
141 179
141 180
141 182
141 184
141 186
141 192
141 196
142 154
142 157
142 160
142 163
142 166
142 167
142 170
142 175
142 176
142 177
142 178
142 181
142 183
142 190
142 196
142 205
142 227
143 145
143 146
143 147
143 148
143 149
143 152
143 155
143 159
143 160
143 163
143 179
143 185
143 194
143 199
143 210
143 213
143 215
143 219
143 220
144 150
144 151
144 153
144 154
144 156
144 157
144 172
144 187
144 188
144 193
144 201
144 202
144 221
144 223
145 146
145 147
145 148
145 149
145 152
145 155
145 160
145 163
145 179
145 185
145 194
145 199
145 210
145 213
145 215
145 219
145 220
146 147
146 148
146 149
146 152
146 155
146 160
146 163
146 179
146 185
146 194
146 199
146 210
146 213
146 215
146 219
146 220
147 148
147 149
147 152
147 155
147 166
147 170
147 180
147 182
147 185
147 186
147 197
147 199
147 217
147 219
147 220
147 222
148 149
148 152
148 155
148 185
148 199
148 219
148 220
149 152
149 155
149 166
149 169
149 170
149 180
149 182
149 185
149 186
149 197
149 199
149 217
149 219
149 220
149 222
150 151
150 153
150 154
150 156
150 157
150 172
150 187
150 188
150 193
150 201
150 202
150 221
150 223
151 153
151 154
151 156
151 157
152 153
152 155
152 185
152 195
152 198
152 199
152 206
152 207
152 211
152 212
152 214
152 216
152 218
152 219
152 220
152 228
153 154
153 156
153 157
153 191
153 194
153 195
153 197
153 198
153 200
153 205
153 206
153 207
153 208
153 209
153 211
153 212
153 214
153 216
153 218
153 228
154 156
154 157
154 196
155 185
155 199
155 205
155 208
155 219
155 220
155 221
155 225
155 227
155 229
156 157
156 191
157 168
157 179
157 180
157 182
157 184
157 186
157 192
157 196
158 159
158 161
158 162
158 164
158 165
158 169
158 171
158 177
158 178
158 181
158 183
158 195
158 196
158 198
158 210
158 211
158 212
158 214
158 216
158 218
159 161
159 162
159 164
159 165
159 169
159 171
159 177
159 178
159 181
159 183
159 195
159 196
159 198
159 211
159 212
159 214
159 216
159 218
160 163
160 166
160 167
160 168
160 170
160 175
160 176
160 179
160 180
160 182
160 184
160 186
160 194
160 197
160 200
160 210
160 213
160 215
160 217
160 222
161 162
161 164
161 165
161 169
161 171
161 177
161 178
161 181
161 183
161 195
161 196
161 198
161 211
161 212
161 214
161 216
161 218
162 164
162 165
162 169
162 171
162 177
162 178
162 181
162 183
162 195
162 196
162 198
162 211
162 212
162 214
162 216
162 218
163 166
163 167
163 168
163 170
163 175
163 176
163 179
163 180
163 182
163 184
163 186
163 194
163 197
163 200
163 210
163 213
163 215
163 217
163 222
164 165
164 169
164 171
164 177
164 178
164 181
164 183
164 195
164 196
164 198
164 211
164 212
164 214
164 216
164 218
165 169
165 171
165 177
165 178
165 181
165 183
165 195
165 196
165 198
165 211
165 212
165 214
165 216
165 218
166 167
166 168
166 170
166 175
166 176
166 179
166 180
166 182
166 184
166 186
166 194
166 197
166 200
166 210
166 213
166 215
166 217
166 222
167 168
167 170
167 175
167 176
167 179
167 180
167 182
167 184
167 186
167 194
167 197
167 200
167 210
167 213
167 215
167 217
167 222
168 170
168 172
168 173
168 174
168 179
168 180
168 182
168 184
168 186
168 192
168 194
168 197
168 200
168 207
168 210
168 213
168 215
168 217
168 222
169 170
169 171
169 177
169 178
169 181
169 183
169 186
169 195
169 196
169 198
169 211
169 212
169 214
169 216
169 218
169 222
170 175
170 176
170 179
170 180
170 182
170 184
170 186
170 194
170 197
170 200
170 210
170 213
170 215
170 217
170 222
171 177
171 178
171 181
171 183
171 195
171 196
171 198
171 210
171 211
171 212
171 214
171 216
171 218
172 173
172 174
172 185
172 187
172 188
172 189
172 191
172 193
172 201
172 202
172 207
172 220
172 221
172 223
172 225
173 174
173 185
173 187
173 188
173 189
173 191
173 207
173 220
173 221
173 225
174 185
174 187
174 188
174 189
174 191
174 199
174 204
174 207
174 219
174 220
174 221
174 225
174 226
175 176
175 192
175 219
175 223
175 224
175 226
175 230
177 178
177 181
177 183
177 190
177 195
177 196
177 198
177 205
177 210
177 211
177 212
177 214
177 216
177 218
177 227
178 181
178 183
178 190
178 195
178 196
178 198
178 205
178 211
178 212
178 214
178 216
178 218
178 227
179 180
179 182
179 184
179 186
179 192
179 194
179 197
179 200
179 210
179 213
179 215
179 217
179 222
180 182
180 184
180 186
180 192
180 194
180 197
180 200
180 210
180 213
180 215
180 217
180 222
181 183
181 190
181 195
181 196
181 198
181 205
181 211
181 212
181 214
181 216
181 218
181 227
182 184
182 186
182 192
182 194
182 197
182 200
182 210
182 213
182 215
182 217
182 222
183 190
183 195
183 196
183 198
183 205
183 211
183 212
183 214
183 216
183 218
183 227
184 186
184 192
184 194
184 197
184 200
184 210
184 213
184 215
184 217
184 222
185 187
185 188
185 189
185 191
185 199
185 204
185 219
185 220
185 221
185 225
185 226
186 192
186 194
186 197
186 200
186 210
186 213
186 215
186 217
186 222
187 188
187 189
187 191
187 193
187 201
187 202
187 220
187 221
187 223
187 225
188 189
188 191
188 193
188 201
188 202
188 220
188 221
188 223
188 225
189 191
189 220
189 221
189 225
190 196
190 205
190 227
191 220
191 221
191 225
192 219
192 223
192 224
192 226
192 230
193 196
193 199
193 201
193 202
193 203
193 204
193 219
193 221
193 223
193 224
193 226
194 195
194 197
194 198
194 200
194 205
194 206
194 207
194 208
194 209
194 210
194 213
194 215
194 217
194 222
195 196
195 197
195 198
195 200
195 205
195 206
195 207
195 208
195 209
195 211
195 212
195 214
195 216
195 218
195 228
196 198
196 199
196 201
196 202
196 203
196 204
196 205
196 211
196 212
196 214
196 216
196 218
196 219
196 223
196 224
196 226
196 227
197 198
197 200
197 205
197 206
197 207
197 208
197 209
197 210
197 213
197 215
197 217
197 222
198 200
198 205
198 206
198 207
198 208
198 209
198 211
198 212
198 214
198 216
198 218
198 228
199 201
199 202
199 203
199 204
199 219
199 220
199 223
199 224
199 225
199 226
200 205
200 206
200 207
200 208
200 209
200 210
200 213
200 215
200 217
200 222
201 202
201 203
201 204
201 219
201 221
201 223
201 224
201 226
202 203
202 204
202 219
202 221
202 223
202 224
202 226
203 204
203 219
203 223
203 224
203 226
204 219
204 220
204 223
204 224
204 225
204 226
205 206
205 207
205 208
205 209
205 220
205 221
205 225
205 227
205 229
206 207
206 208
206 209
206 211
206 212
206 214
206 216
206 218
206 228
207 208
207 209
207 211
207 212
207 214
207 216
207 218
207 228
208 209
208 220
208 221
208 225
208 227
208 229
210 211
210 213
210 215
210 217
210 222
211 212
211 214
211 216
211 218
211 228
212 214
212 216
212 218
212 228
213 215
213 217
213 222
214 216
214 218
214 228
215 217
215 222
216 218
216 228
217 222
218 228
219 220
219 223
219 224
219 225
219 226
219 230
220 221
220 225
220 226
220 227
220 229
221 223
221 225
221 227
221 229
223 224
223 226
223 230
224 226
224 230
225 226
225 227
225 229
226 230
227 229
0
1
2
3
4
5
6 7
8 9
10
11 12
13
14
15
16
17
18 19
20 21
22
23
24 25
26
27 28
29
30
31
32
33
34 35
36
37
38 39
40
41
42
43
44 45
46
47
48 49
50
51
52
53 54
55
56 57
58
59 60
61 62
63
64
65 66
67
68
69 70
71
72 73
74 75
76 77
78 79
80
81
82
83 84
85 86
87
88
89 90
91 92
93 94
95
96
97
98 99
100
101
102
103
104 105
106
107
108
109
110
111
112
113
114
115
116
117
118
119
120
121 122
123 124
125 126
127 128
129 130
131
132 133
134 135
136
137
138
139
140
141 142
143
144 145
146
147
148
149
150
151
152 153
154 155
156
157
158 159
160 161
162 163
164
165 166
167 168
169 170
171 172
173
174
175
176
177
178
179
180 181
182 183
184 185
186 187
188
189
190
191 192
193
194
195 196
197 198
199 200
201
202
203
204
205 206
207 208
209
210 211
212 213
214 215
216
217 218
219 220
221 222
223
224
225 226
227 228
229
230
